12
1
1
2
4
5
2
11
3
2
8
10
10
7
1
7
3
7
2
1
4
6
4
8
7
6
5
3
12
3
8
4
9
4
3
6
1
11
5
2
8
2
4
5
8
6
12
5
4
1
8
6
11
7
6
5
8
6
5
1
3
9
12
4
7
1
10
8
7
4
10
7
8
6
12
2
3
5
6
1
10
8
9
3
9
2
12
2
3
2
10
11
12
9
9
5
10
4
11
3
4
